c ---- [ banner ] ------------------------------------------------------------
c
c Kissat SAT Solver
c 
c Copyright (c) 2021-2024 Armin Biere University of Freiburg
c Copyright (c) 2019-2021 Armin Biere Johannes Kepler University Linz
c 
c Version 4.0.1 43f02cf3e992cb44653b35e5cb26f93281552ae0
c gcc (Ubuntu 13.2.0-23ubuntu4) 13.2.0 -W -Wall -O3 -DNDEBUG
c Thu Sep 12 12:27:46 CEST 2024 Linux abryzen9 6.8.0-41-generic x86_64
c
c ---- [ parsing ] -----------------------------------------------------------
c
c opened and reading DIMACS file:
c
c   /data/artifact/AMulet2.0_artifact/exp4/cnf_compress2rs_64/64_64_U_SP_DT_CK_GenMul_compress2rs.cnf
c
c parsed 'p cnf 34716 135666' header
c closing input after reading 2641193 bytes (3 MB)
c finished parsing after 0.04 seconds
c
c ---- [ options ] -----------------------------------------------------------
c
c --stable=0                       (different from default '1')
c
c ---- [ solving ] -----------------------------------------------------------
c
c  seconds switched rate     size/glue tier1  binary           remaining
c         MB reductions conflicts size  tier2     irredundant
c          level restarts redundant glue  trail           variables
c
c *  0.04 10 0 0 0  0 0   0   0 0.0 0 0 0 0 0% 27681 107983 34713 100%
c (  0.06 12 0 0 0  0 0   0   0 0.0 0 0 0 0 0% 27681 107983 34713 100%
c .  0.07 13 0 0 0  0 0   0   0 0.0 0 0 0 0 0% 27677 107983 34713 100%
c c  0.18 21 0 0 0  0 0   0   0 0.0 0 0 0 0 0% 34581 94175 31261 90%
c d  0.18 21 0 0 0  0 0   0   0 0.0 0 0 0 0 0% 27677 94175 31261 90%
c =  0.24 21 0 0 0  0 0   0   0 0.0 0 0 0 0 0% 28175 94175 31012 89%
c d  0.25 21 0 0 0  0 0   0   0 0.0 0 0 0 0 0% 27677 94175 31012 89%
c f  0.36 19 0 0 0  0 0   0   0 0.0 0 0 0 0 0% 30494 89639 32707 94%
c e  0.51 27 0 0 0  0 0   0   0 0.0 0 0 0 0 0% 8657 103489 21670 62%
c )  0.52 27 0 0 0  0 0   0   0 0.0 0 0 0 0 0% 8657 103489 21670 62%
c {  0.53 27 0 0 0  0 0   0   0 0.0 0 0 2 6 0% 8657 103489 21670 62%
c -  0.86 29 124 0 1 226 28 1001 762 2.9 16 6 3 10 22% 8688 103489 21670 62%
c -  1.14 29 241 0 2 385 32 2002 1486 3.7 22 6 3 11 22% 8705 103489 21670 62%
c c  1.42 22 223 0 2 485 34 2502 1944 3.8 24 6 3 11 23% 8715 103461 21663 62%
c d  1.43 22 223 0 2 485 34 2502 1943 3.8 24 6 3 11 23% 8701 103461 21663 62%
c u  1.45 22 223 0 2 485 34 2502 1517 3.8 24 6 3 11 23% 8707 103461 21663 62%
c v  1.49 22 223 0 2 485 34 2502 1265 3.8 24 6 3 11 23% 8707 103461 21663 62%
c w  1.51 22 223 0 2 485 34 2502 1265 3.8 24 6 3 11 23% 8707 103461 21663 62%
c =  1.63 22 223 0 2 485 34 2502 1265 3.8 24 6 3 11 23% 9105 103461 21464 62%
c d  1.64 22 223 0 2 485 34 2502 1245 3.8 24 6 3 11 23% 8691 103461 21463 62%
c
c  seconds   switched   rate       size/glue tier1     binary          remaining
c         MB  reductions conflicts       size  tier2      irredundant
c           level restarts    redundant    glue    trail          variables
c
c f  1.70 22 223 0 2 485 34 2502 1245 3.8 24 6 3 11 23% 9404 102111 22100 64%
c u  1.74 27 223 0 2 485 34 2502 1195 3.8 24 6 3 11 23% 9405 102111 22100 64%
c v  1.76 27 223 0 2 485 34 2502 1155 3.8 24 6 3 11 23% 9405 102111 22100 64%
c w  1.82 27 223 0 2 485 34 2502 1153 3.8 24 6 3 11 23% 9405 102111 22100 64%
c =  1.91 27 223 0 2 485 34 2502 1153 3.8 24 6 3 11 23% 9909 102111 21848 63%
c d  1.92 27 223 0 2 485 34 2502 1153 3.8 24 6 3 11 23% 9336 102111 21848 63%
c t  1.94 27 223 0 2 485 34 2502 1153 3.8 24 6 3 11 23% 9335 102111 21848 63%
c f  1.98 27 223 0 2 485 34 2502 1153 3.8 24 6 3 11 23% 9947 101193 22154 64%
c -  2.39 27 247 0 3 648 39 3418 1700 4.5 30 7 3 11 25% 9960 101193 22154 64%
c -  2.83 27 345 0 4 811 37 5150 2849 4.5 29 6 3 11 25% 9997 101193 22154 64%
c -  3.40 27 363 0 5 1005 37 7150 4028 4.4 28 6 2 10 27% 10043 101193 22154 64%
c c  3.74 27 362 0 5 1105 38 7705 4521 4.6 30 7 2 10 27% 10060 101123 22138 64%
c d  3.75 27 362 0 5 1105 38 7705 4521 4.6 30 7 2 10 27% 10023 101123 22135 64%
c u  3.78 27 362 0 5 1105 38 7705 3669 4.6 30 7 2 10 27% 10030 101123 22135 64%
c v  3.83 27 362 0 5 1105 38 7705 3121 4.6 30 7 2 10 27% 10030 101123 22135 64%
c w  3.90 27 362 0 5 1105 38 7705 3120 4.6 30 7 2 10 27% 10030 101123 22135 64%
c x  3.93 27 362 0 5 1105 38 7705 3120 4.6 30 7 2 10 27% 10030 100691 22135 64%
c =  4.09 27 362 0 5 1105 38 7705 3120 4.6 30 7 2 10 27% 10964 100691 21668 62%
c d  4.10 27 362 0 5 1105 38 7705 3099 4.6 30 7 2 10 27% 9894 100691 21667 62%
c t  4.12 27 362 0 5 1105 38 7705 3099 4.6 30 7 2 10 27% 9888 100691 21667 62%
c
c  seconds   switched    rate       size/glue tier1     binary          remaining
c         MB  reductions  conflicts       size  tier2       irredundant
c           level  restarts    redundant    glue    trail          variables
c
c f  4.17 27 362 0 5 1105 38 7705 3099 4.6 30 7 2 10 27% 11633 98073 22540 65%
c u  4.21 27 362 0 5 1105 38 7705 2936 4.6 30 7 2 10 27% 11635 98073 22540 65%
c v  4.24 27 362 0 5 1105 38 7705 2845 4.6 30 7 2 10 27% 11635 98073 22540 65%
c w  4.33 27 362 0 5 1105 38 7705 2842 4.6 30 7 2 10 27% 11635 98073 22540 65%
c x  4.36 27 362 0 5 1105 38 7705 2842 4.6 30 7 2 10 27% 11635 92531 22540 65%
c =  4.53 27 362 0 5 1105 38 7705 2842 4.6 30 7 2 10 27% 12129 92529 22293 64%
c d  4.54 27 362 0 5 1105 38 7705 2830 4.6 30 7 2 10 27% 11571 92529 22293 64%
c t  4.56 27 362 0 5 1105 38 7705 2830 4.6 30 7 2 10 27% 11547 92529 22293 64%
c -  5.13 27 336 0 6 1245 37 9387 3627 4.6 30 7 2 10 27% 11603 92529 22293 64%
c o  5.38 27 333 0 6 1311 37 10248 4321 4.7 30 7 2 10 28% 11640 92529 22293 64%
c -  5.63 27 324 0 7 1426 35 11838 4989 4.6 30 7 2 9 27% 11688 92529 22293 64%
c s  5.81 27 317 0 7 1510 35 12507 5600 4.6 30 7 2 9 28% 11695 91528 22293 64%
c e  5.90 27 317 0 7 1510 35 12507 5600 4.6 30 7 2 9 28% 10104 92433 20848 60%
c s  5.90 27 317 0 7 1510 35 12507 5600 4.6 30 7 2 9 28% 10104 91493 20848 60%
c e  5.92 27 317 0 7 1510 35 12507 5600 4.6 30 7 2 9 28% 10055 91542 20832 60%
c ^  5.92 27 317 0 7 1510 35 12507 5600 4.6 30 7 2 9 28% 10055 91542 20832 60%
c -  6.26 27 328 0 8 1671 34 14484 5942 4.5 30 7 2 9 28% 10091 91542 20832 60%
c d  6.42 27 328 0 8 1747 34 15781 7032 4.6 30 7 2 9 27% 9900 91542 20685 60%
c u  6.45 27 328 0 8 1747 34 15781 5626 4.6 30 7 2 9 27% 9913 91542 20685 60%
c v  6.47 27 328 0 8 1747 34 15781 4907 4.6 30 7 2 9 27% 9913 91542 20685 60%
c
c  seconds   switched    rate        size/glue tier1    binary         remaining
c         MB  reductions   conflicts       size  tier2     irredundant
c           level  restarts     redundant    glue   trail         variables
c
c w  6.53 27 328 0 8 1747 34 15781 4900 4.6 30 7 2 9 27% 9913 91542 20685 60%
c x  6.56 27 328 0 8 1747 34 15781 4900 4.6 30 7 2 9 27% 9913 89862 20685 60%
c =  6.71 27 328 0 8 1747 34 15781 4900 4.6 30 7 2 9 27% 11991 89862 19646 57%
c d  6.72 27 328 0 8 1747 34 15781 4788 4.6 30 7 2 9 27% 9488 89862 19646 57%
c t  6.73 27 328 0 8 1747 34 15781 4788 4.6 30 7 2 9 27% 9475 89862 19646 57%
c f  6.77 27 328 0 8 1747 34 15781 4788 4.6 30 7 2 9 27% 9497 89818 19657 57%
c u  6.83 27 328 0 8 1747 34 15781 4392 4.6 30 7 2 9 27% 9499 89818 19657 57%
c v  6.85 27 328 0 8 1747 34 15781 4246 4.6 30 7 2 9 27% 9499 89818 19657 57%
c w  6.92 27 328 0 8 1747 34 15781 4231 4.6 30 7 2 9 27% 9499 89818 19657 57%
c x  6.95 27 328 0 8 1747 34 15781 4230 4.6 30 7 2 9 27% 9500 88525 19657 57%
c =  7.11 27 328 0 8 1747 34 15781 4230 4.6 30 7 2 9 27% 11070 88525 18872 54%
c d  7.11 27 328 0 8 1747 34 15781 4160 4.6 30 7 2 9 27% 9254 88525 18872 54%
c t  7.12 27 328 0 8 1747 34 15781 4160 4.6 30 7 2 9 27% 9253 88525 18872 54%
c -  7.32 27 334 0 9 1826 33 17312 4842 4.5 29 7 2 8 27% 9290 88525 18872 54%
c o  7.74 27 338 0 9 2050 33 20250 7489 4.3 28 7 2 8 27% 9326 88525 18872 54%
c -  7.78 27 338 0 10 2067 33 20313 6691 4.4 29 7 2 8 27% 9326 88525 18872 54%
c -  8.24 27 323 0 11 2302 32 23475 8367 4.3 28 7 2 7 27% 9385 88525 18872 54%
c s  8.50 27 316 0 11 2417 32 25007 9722 4.3 28 7 2 7 27% 9414 86755 18872 54%
c e  8.59 27 316 0 11 2417 32 25007 9722 4.3 28 7 2 7 27% 8407 89555 16413 47%
c s  8.61 27 316 0 11 2417 32 25007 9722 4.3 28 7 2 7 27% 8412 85416 16413 47%
c
c  seconds   switched     rate        size/glue tier1    binary         remaining
c         MB   reductions   conflicts       size  tier2     irredundant
c           level   restarts     redundant    glue   trail         variables
c
c e  8.64 27 316 0 11 2417 32 25007 9722 4.3 28 7 2 7 27% 8397 85458 16384 47%
c ^  8.64 27 316 0 11 2417 32 25007 9722 4.3 28 7 2 7 27% 8397 85458 16384 47%
c -  8.87 27 302 0 12 2518 31 26792 8428 4.1 27 7 2 7 27% 8417 85458 16384 47%
c d  8.90 27 301 0 12 2535 31 26907 8537 4.1 27 7 2 7 27% 8264 85458 16284 47%
c u  8.94 27 301 0 12 2535 31 26907 7019 4.1 27 7 2 7 27% 8273 85458 16284 47%
c v  8.97 27 301 0 12 2535 31 26907 6051 4.1 27 7 2 7 27% 8273 85458 16284 47%
c w  8.98 27 301 0 12 2535 31 26907 6049 4.1 27 7 2 7 27% 8273 85458 16284 47%
c x  9.04 27 301 0 12 2535 31 26907 6049 4.1 27 7 2 7 27% 8273 82654 16284 47%
c =  9.21 27 301 0 12 2535 31 26907 6049 4.1 27 7 2 7 27% 10389 82638 15226 44%
c d  9.22 27 301 0 12 2535 31 26907 5792 4.1 27 7 2 7 27% 8162 82638 15226 44%
c t  9.23 27 301 0 12 2535 31 26907 5792 4.1 27 7 2 7 27% 8150 82638 15226 44%
c f  9.28 27 301 0 12 2535 31 26907 5792 4.1 27 7 2 7 27% 8159 82585 15238 44%
c u  9.31 27 301 0 12 2535 31 26907 5327 4.1 27 7 2 7 27% 8159 82585 15238 44%
c v  9.33 27 301 0 12 2535 31 26907 5171 4.1 27 7 2 7 27% 8159 82585 15238 44%
c w  9.33 27 301 0 12 2535 31 26907 5167 4.1 27 7 2 7 27% 8159 82585 15238 44%
c x  9.42 27 301 0 12 2535 31 26907 5167 4.1 27 7 2 7 27% 8159 74832 15238 44%
c - 10.03 27 280 0 13 2781 29 30256 7259 3.9 26 7 2 7 27% 8173 74826 15238 44%
c - 10.31 27 274 0 14 2958 28 33861 9185 3.8 25 6 2 7 26% 8207 74826 15238 44%
c - 10.73 27 267 0 15 3242 28 37603 10804 3.8 24 6 2 7 27% 8260 74821 15238 44%
c o 11.11 27 267 0 15 3453 27 40311 13089 3.7 24 7 2 7 26% 8305 74820 15238 44%
c
c  seconds   switched     rate         size/glue tier1    binary         remaining
c         MB   reductions   conflicts        size  tier2     irredundant
c           level   restarts      redundant    glue   trail         variables
c
c d 11.30 27 267 0 15 3560 27 41252 13824 3.7 24 7 2 7 26% 8193 74820 15171 44%
c u 11.36 27 267 0 15 3560 27 41252 11705 3.7 24 7 2 7 26% 8209 74820 15171 44%
c v 11.42 27 267 0 15 3560 27 41252 10346 3.7 24 7 2 7 26% 8214 74820 15171 44%
c w 11.45 27 267 0 15 3560 27 41252 10346 3.7 24 7 2 7 26% 8214 74820 15171 44%
c x 11.49 27 267 0 15 3560 27 41252 10346 3.7 24 7 2 7 26% 8214 73753 15171 44%
c d 11.49 27 267 0 15 3560 27 41252 10341 3.7 24 7 2 7 26% 8206 73753 15167 44%
c c 11.55 27 267 0 15 3560 27 41252 10341 3.7 24 7 2 7 26% 8237 73625 15151 44%
c d 11.55 27 267 0 15 3560 27 41252 10326 3.7 24 7 2 7 26% 8205 73625 15151 44%
c u 11.58 27 267 0 15 3560 27 41252 9979 3.7 24 7 2 7 26% 8210 73625 15151 44%
c v 11.61 27 267 0 15 3560 27 41252 9576 3.7 24 7 2 7 26% 8210 73625 15151 44%
c w 11.68 27 267 0 15 3560 27 41252 9568 3.7 24 7 2 7 26% 8210 73625 15151 44%
c x 11.72 27 267 0 15 3560 27 41252 9568 3.7 24 7 2 7 26% 8210 72991 15151 44%
c = 11.90 27 267 0 15 3560 27 41252 9568 3.7 24 7 2 7 26% 9320 72991 14596 42%
c d 11.90 27 267 0 15 3560 27 41252 9283 3.7 24 7 2 7 26% 8102 72991 14596 42%
c - 12.01 27 266 0 16 3602 27 41476 8408 3.7 24 7 2 6 26% 8102 72991 14596 42%
c - 12.30 27 262 0 17 3817 27 45477 10633 3.6 23 6 2 6 26% 8156 72990 14596 42%
c - 12.84 27 250 0 18 4221 26 49600 12959 3.5 23 7 2 6 26% 8177 72988 14596 42%
c s 13.31 27 246 0 18 4596 27 52110 15220 3.6 24 7 2 6 26% 8208 70909 14596 42%
c e 13.39 27 246 0 18 4596 27 52110 15220 3.6 24 7 2 6 26% 7142 72992 13515 39%
c s 13.39 27 246 0 18 4596 27 52110 15220 3.6 24 7 2 6 26% 7142 72314 13515 39%
c
c  seconds   switched     rate         size/glue tier1    binary         remaining
c         MB   reductions   conflicts        size  tier2     irredundant
c           level   restarts      redundant    glue   trail         variables
c
c e 13.40 27 246 0 18 4596 27 52110 15220 3.6 24 7 2 6 26% 7138 72347 13497 39%
c ^ 13.40 27 246 0 18 4596 27 52110 15220 3.6 24 7 2 6 26% 7138 72347 13497 39%
c - 13.57 27 242 0 19 4701 26 53842 13033 3.5 23 7 2 6 26% 7148 72347 13497 39%
c - 14.20 27 230 0 20 5093 25 58200 15075 3.4 22 7 2 6 27% 7189 72347 13497 39%
c d 14.36 27 229 0 20 5186 25 58905 15729 3.3 22 7 2 6 27% 7161 72347 13483 39%
c u 14.40 27 229 0 20 5186 25 58905 13028 3.3 22 7 2 6 27% 7185 72347 13483 39%
c v 14.44 27 229 0 20 5186 25 58905 11354 3.3 22 7 2 6 27% 7188 72347 13483 39%
c w 14.47 27 229 0 20 5186 25 58905 11310 3.3 22 7 2 6 27% 7188 72347 13483 39%
c x 14.54 27 229 0 20 5186 25 58905 11310 3.3 22 7 2 6 27% 7188 71908 13483 39%
c = 14.77 27 229 0 20 5186 25 58905 11310 3.3 22 7 2 6 27% 7212 71908 13471 39%
c d 14.78 27 229 0 20 5186 25 58905 11287 3.3 22 7 2 6 27% 7164 71908 13461 39%
c t 14.79 27 229 0 20 5186 25 58905 11287 3.3 22 7 2 6 27% 7160 71908 13461 39%
c f 14.82 27 229 0 20 5186 25 58905 11287 3.3 22 7 2 6 27% 7167 71871 13467 39%
c c 14.85 27 229 0 20 5186 25 58905 11249 3.3 22 7 2 6 27% 7204 71665 13442 39%
c d 14.86 27 229 0 20 5186 25 58905 11249 3.3 22 7 2 6 27% 7154 71665 13442 39%
c u 14.91 27 229 0 20 5186 25 58905 10807 3.3 22 7 2 6 27% 7159 71665 13442 39%
c v 14.95 27 229 0 20 5186 25 58905 10588 3.3 22 7 2 6 27% 7160 71665 13442 39%
c w 14.98 27 229 0 20 5186 25 58905 10573 3.3 22 7 2 6 27% 7160 71665 13442 39%
c x 15.10 27 229 0 20 5186 25 58905 10569 3.3 22 7 2 6 27% 7160 70131 13442 39%
c = 15.39 27 229 0 20 5186 25 58905 10569 3.3 22 7 2 6 27% 7352 70131 13346 38%
c
c  seconds   switched     rate         size/glue tier1    binary         remaining
c         MB   reductions   conflicts        size  tier2     irredundant
c           level   restarts      redundant    glue   trail         variables
c
c d 15.39 27 229 0 20 5186 25 58905 10524 3.3 22 7 2 6 27% 7151 70131 13344 38%
c t 15.40 27 229 0 20 5186 25 58905 10524 3.3 22 7 2 6 27% 7150 70131 13344 38%
c - 15.96 27 220 0 21 5557 25 62674 12486 3.2 22 7 2 6 27% 7162 70131 13344 38%
c - 16.53 27 210 0 22 6003 24 67256 14828 3.1 21 7 2 6 27% 7189 70131 13344 38%
c o 16.90 27 204 0 22 6268 24 70482 17814 3.1 21 7 2 6 27% 7196 70131 13344 38%
c - 17.04 27 203 0 23 6375 24 71946 16913 3.1 20 7 2 6 27% 7208 70131 13344 38%
c - 17.72 27 197 0 24 6847 23 76741 18606 3.0 20 7 2 6 27% 7244 70131 13344 38%
c c 18.25 27 194 0 24 7236 24 80003 21427 3.0 20 7 2 6 27% 7351 69721 13258 38%
c d 18.25 27 194 0 24 7236 24 80003 21188 3.0 20 7 2 6 27% 7179 69721 13258 38%
c u 18.31 27 194 0 24 7236 24 80003 17826 3.0 20 7 2 6 27% 7209 69721 13258 38%
c v 18.38 27 194 0 24 7236 24 80003 15706 3.0 20 7 2 6 27% 7214 69721 13258 38%
c w 18.43 27 194 0 24 7236 24 80003 15704 3.0 20 7 2 6 27% 7214 69721 13258 38%
c x 18.50 27 194 0 24 7236 24 80003 15704 3.0 20 7 2 6 27% 7214 69593 13258 38%
c d 18.52 27 194 0 24 7236 24 80003 15692 3.0 20 7 2 6 27% 7186 69593 13244 38%
c t 18.53 27 194 0 24 7236 24 80003 15692 3.0 20 7 2 6 27% 7184 69593 13244 38%
c c 18.57 27 194 0 24 7236 24 80003 15692 3.0 20 7 2 6 27% 7204 69476 13230 38%
c d 18.57 27 194 0 24 7236 24 80003 15646 3.0 20 7 2 6 27% 7176 69476 13230 38%
c u 18.62 27 194 0 24 7236 24 80003 15081 3.0 20 7 2 6 27% 7183 69476 13230 38%
c v 18.66 27 194 0 24 7236 24 80003 14715 3.0 20 7 2 6 27% 7184 69476 13230 38%
c w 18.78 27 194 0 24 7236 24 80003 14543 3.0 20 7 2 6 27% 7184 69476 13230 38%
c
c  seconds   switched     rate         size/glue tier1    binary         remaining
c         MB   reductions   conflicts        size  tier2     irredundant
c           level   restarts      redundant    glue   trail         variables
c
c - 19.05 27 192 0 25 7382 23 81640 14358 2.9 20 7 2 5 28% 7186 69476 13230 38%
c - 20.11 27 185 0 26 7863 23 86640 16799 2.9 20 7 2 6 28% 7223 69475 13230 38%
c - 21.37 27 180 0 27 8465 23 91739 18970 2.8 20 7 2 5 28% 7271 69475 13230 38%
c s 22.32 27 178 0 27 8938 23 95838 22743 2.8 20 7 2 5 28% 7293 69078 13230 38%
c e 22.40 27 178 0 27 8938 23 95838 22743 2.8 20 7 2 5 28% 4818 75612 11885 34%
c 2 22.40 27 178 0 27 8938 23 95838 22743 2.8 20 7 2 5 28% 4816 75612 11885 34%
c s 22.42 27 178 0 27 8938 23 95838 22743 2.8 20 7 2 5 28% 4816 75387 11885 34%
c e 22.43 27 178 0 27 8938 23 95838 22743 2.8 20 7 2 5 28% 4811 75464 11857 34%
c ^ 22.43 27 178 0 27 8938 23 95838 22743 2.8 20 7 2 5 28% 4811 75464 11857 34%
c - 22.57 27 177 0 28 9012 23 96935 16733 2.8 19 7 2 5 28% 4833 75464 11857 34%
c - 23.19 27 173 0 29 9496 22 102226 19066 2.8 19 7 2 5 27% 4898 75463 11857 34%
c c 23.59 27 171 0 29 9798 22 104662 21200 2.8 19 7 2 5 27% 4994 74965 11770 34%
c d 23.60 27 171 0 29 9798 22 104662 20890 2.8 19 7 2 5 27% 4820 74965 11770 34%
c u 23.67 27 171 0 29 9798 22 104662 17493 2.8 19 7 2 5 27% 4849 74965 11770 34%
c v 23.74 27 171 0 29 9798 22 104662 15677 2.8 19 7 2 5 27% 4854 74965 11770 34%
c w 23.84 27 171 0 29 9798 22 104662 15638 2.8 19 7 2 5 27% 4854 74965 11770 34%
c x 23.90 27 171 0 29 9798 22 104662 15638 2.8 19 7 2 5 27% 4854 74887 11770 34%
c = 24.30 27 171 0 29 9798 22 104662 15638 2.8 19 7 2 5 27% 5772 74794 11302 33%
c d 24.31 27 171 0 29 9798 22 104662 15040 2.8 19 7 2 5 27% 4742 74794 11302 33%
c t 24.32 27 171 0 29 9798 22 104662 15040 2.8 19 7 2 5 27% 4738 74794 11302 33%
c
c  seconds   switched     rate          size/glue tier1    binary         remaining
c         MB   reductions   conflicts         size  tier2     irredundant
c           level   restarts       redundant    glue   trail         variables
c
c f 24.39 27 171 0 29 9798 22 104662 15040 2.8 19 7 2 5 27% 4740 74783 11303 33%
c c 24.43 27 171 0 29 9798 22 104662 15039 2.8 19 7 2 5 27% 4740 74767 11301 33%
c d 24.43 27 171 0 29 9798 22 104662 15039 2.8 19 7 2 5 27% 4736 74767 11301 33%
c u 24.49 27 171 0 29 9798 22 104662 13849 2.8 19 7 2 5 27% 4738 74767 11301 33%
c v 24.52 27 171 0 29 9798 22 104662 13508 2.8 19 7 2 5 27% 4738 74767 11301 33%
c w 24.63 27 171 0 29 9798 22 104662 13155 2.8 19 7 2 5 27% 4738 74767 11301 33%
c = 25.08 27 171 0 29 9798 22 104662 13155 2.8 19 7 2 5 27% 5036 74767 11152 32%
c d 25.09 27 171 0 29 9798 22 104662 13064 2.8 19 7 2 5 27% 4726 74767 11152 32%
c - 25.60 27 168 0 30 10128 22 107611 12777 2.8 19 7 1 5 27% 4729 74767 11152 32%
c o 26.08 27 166 0 30 10426 22 110570 15528 2.7 19 7 1 5 28% 4730 74767 11152 32%
c - 26.41 27 165 0 31 10614 22 113089 14980 2.7 19 7 1 5 28% 4737 74766 11152 32%
c - 27.21 27 161 0 32 11134 22 118656 16836 2.7 19 7 1 5 28% 4743 74765 11152 32%
c - 28.38 27 159 0 33 11856 22 124313 18386 2.7 20 7 1 5 28% 4760 74765 11152 32%
c - 29.43 27 158 0 34 12531 22 130057 19811 2.7 21 7 1 5 28% 4784 74765 11152 32%
c d 30.01 27 157 0 34 12893 22 132940 22282 2.8 21 8 1 5 28% 4758 74765 11132 32%
c u 30.06 27 157 0 34 12893 22 132940 19883 2.8 21 8 1 5 28% 4777 74765 11132 32%
c v 30.14 27 157 0 34 12893 22 132940 16457 2.8 21 8 1 5 28% 4782 74765 11132 32%
c w 30.43 27 157 0 34 12893 22 132940 16232 2.8 21 8 1 5 28% 4782 74765 11132 32%
c = 30.94 27 157 0 34 12893 22 132940 16232 2.8 21 8 1 5 28% 5082 74765 10982 32%
c d 30.95 27 157 0 34 12893 22 132940 16000 2.8 21 8 1 5 28% 4737 74765 10982 32%
c
c  seconds   switched      rate          size/glue tier1    binary         remaining
c         MB   reductions    conflicts         size  tier2     irredundant
c           level   restarts        redundant    glue   trail         variables
c
c t 30.95 27 157 0 34 12893 22 132940 16000 2.8 21 8 1 5 28% 4728 74765 10982 32%
c u 31.05 27 157 0 34 12893 22 132940 15304 2.8 21 8 1 5 28% 4729 74765 10982 32%
c v 31.10 27 157 0 34 12893 22 132940 14656 2.8 21 8 1 5 28% 4729 74765 10982 32%
c w 31.29 27 157 0 34 12893 22 132940 14324 2.8 21 8 1 5 28% 4729 74765 10982 32%
c x 31.39 27 157 0 34 12893 22 132940 14295 2.8 21 8 1 5 28% 4729 69122 10982 32%
c = 31.91 27 157 0 34 12893 22 132940 14295 2.8 21 8 1 5 28% 4825 69118 10934 31%
c d 31.92 27 157 0 34 12893 22 132940 14273 2.8 21 8 1 5 28% 4725 69118 10934 31%
c - 32.28 27 156 0 35 13087 22 135887 14350 2.8 21 8 1 5 28% 4732 69117 10934 31%
c - 33.14 27 154 0 36 13659 22 141806 16960 2.7 21 8 1 5 29% 4736 69117 10934 31%
c i 33.49 27 153 0 36 13885 22 144228 19179 2.7 21 8 1 5 29% 4746 69117 10933 31%
c - 34.05 27 152 0 37 14259 22 147806 19129 2.7 21 8 1 5 29% 4757 69115 10933 31%
c i 34.28 27 150 0 37 14405 21 151200 21996 2.7 21 8 1 5 28% 4766 69115 10932 31%
c - 34.60 27 149 0 38 14612 21 153888 20503 2.7 21 8 1 5 28% 4776 69114 10932 31%
c i 35.00 27 147 0 38 14870 21 157256 23552 2.7 21 8 1 5 28% 4793 69114 10915 31%
c i 35.08 27 147 0 38 14912 21 157634 23892 2.7 21 8 1 5 28% 4795 69114 10912 31%
c s 35.13 27 147 0 38 14936 21 157965 24200 2.7 21 8 1 5 28% 4796 68695 10912 31%
c e 35.23 27 147 0 38 14936 21 157965 24200 2.7 21 8 1 5 28% 2512 79520 9377 27%
c 2 35.23 27 147 0 38 14936 21 157965 24200 2.7 21 8 1 5 28% 2510 79520 9377 27%
c s 35.25 27 147 0 38 14936 21 157965 24200 2.7 21 8 1 5 28% 2510 79059 9377 27%
c e 35.27 27 147 0 38 14936 21 157965 24200 2.7 21 8 1 5 28% 2506 79206 9344 27%
c
c  seconds   switched      rate          size/glue tier1    binary        remaining
c         MB   reductions    conflicts         size  tier2     irredundant
c           level   restarts        redundant    glue   trail        variables
c
c ^ 35.27 27 147 0 38 14936 21 157965 24200 2.7 21 8 1 5 28% 2506 79206 9344 27%
c - 35.53 27 146 0 39 15104 21 160052 15621 2.7 21 8 1 5 28% 2517 79206 9344 27%
c o 35.61 27 145 0 39 15185 21 160573 16110 2.7 21 8 1 5 28% 2519 79206 9344 27%
c i 35.78 27 145 0 39 15333 21 161876 17310 2.7 21 8 1 5 28% 2524 79206 9343 27%
c d 36.12 27 143 0 39 15585 21 164990 20027 2.7 21 8 1 5 28% 2503 79086 9326 27%
c d 36.12 27 143 0 39 15585 21 164990 20023 2.7 21 8 1 5 28% 2498 79086 9324 27%
c u 36.16 27 143 0 39 15585 21 164990 17682 2.7 21 8 1 5 28% 2512 79086 9324 27%
c v 36.24 27 143 0 39 15585 21 164990 14753 2.7 21 8 1 5 28% 2516 79086 9324 27%
c w 36.41 27 143 0 39 15585 21 164990 14327 2.7 21 8 1 5 28% 2516 79086 9324 27%
c = 36.85 27 143 0 39 15585 21 164990 14327 2.7 21 8 1 5 28% 2536 79014 9314 27%
c d 36.86 27 143 0 39 15585 21 164990 14309 2.7 21 8 1 5 28% 2495 79014 9307 27%
c f 36.96 27 143 0 39 15585 21 164990 14309 2.7 21 8 1 5 28% 2506 78723 9322 27%
c u 37.00 27 143 0 39 15585 21 164990 13940 2.7 21 8 1 5 28% 2513 78723 9322 27%
c v 37.04 27 143 0 39 15585 21 164990 13459 2.7 21 8 1 5 28% 2513 78723 9322 27%
c w 37.17 27 143 0 39 15585 21 164990 13177 2.7 21 8 1 5 28% 2513 78723 9322 27%
c x 37.24 27 143 0 39 15585 21 164990 13177 2.7 21 8 1 5 28% 2513 78562 9322 27%
c = 37.68 27 143 0 39 15585 21 164990 13177 2.7 21 8 1 5 28% 2590 78523 9282 27%
c d 37.69 27 143 0 39 15585 21 164990 13049 2.7 21 8 1 5 28% 2491 78523 9282 27%
c t 37.69 27 143 0 39 15585 21 164990 13049 2.7 21 8 1 5 28% 2490 78523 9282 27%
c i 37.78 27 143 0 39 15624 20 165545 13574 2.6 21 8 1 5 28% 2492 78521 9281 27%
c
c  seconds   switched      rate          size/glue tier1    binary        remaining
c         MB   reductions    conflicts         size  tier2     irredundant
c           level   restarts        redundant    glue   trail        variables
c
c - 37.84 27 143 0 40 15665 20 166297 11962 2.6 21 8 1 5 28% 2482 78521 9281 27%
c i 38.11 27 141 0 40 15889 20 170400 15469 2.6 20 8 1 5 28% 2498 78520 9280 27%
c - 38.27 27 140 0 41 16074 20 172621 14602 2.6 20 8 1 5 27% 2502 78520 9280 27%
c i 38.47 27 139 0 41 16233 20 175205 16922 2.6 20 8 1 5 27% 2517 78520 9279 27%
c i 38.47 27 139 0 41 16233 20 175217 16926 2.6 20 8 1 5 27% 2519 78520 9276 27%
c i 38.48 27 138 0 41 16243 19 175647 17285 2.6 20 8 1 5 27% 2524 78520 9275 27%
c i 38.50 27 138 0 41 16253 19 175846 17454 2.6 20 8 1 5 27% 2527 78520 9274 27%
c i 38.51 27 138 0 41 16269 19 175991 17541 2.6 20 8 1 5 27% 2532 78520 9273 27%
c i 38.54 27 138 0 41 16297 19 176276 17758 2.6 20 8 1 5 27% 2537 78520 9272 27%
c i 38.57 27 138 0 41 16329 19 176525 17972 2.6 20 8 1 5 27% 2539 78520 9270 27%
c i 38.60 27 137 0 41 16367 19 177395 18638 2.6 20 8 1 5 27% 2546 78518 9269 27%
c i 38.60 27 137 0 41 16367 19 177436 18643 2.6 20 8 1 5 27% 2550 78518 9268 27%
c i 38.61 27 137 0 41 16389 19 178049 19126 2.6 20 8 1 5 27% 2553 78518 9267 27%
c i 38.61 27 136 0 41 16393 19 178221 19260 2.6 20 8 1 5 27% 2557 78518 9266 27%
c i 38.63 27 136 0 41 16424 19 178824 19729 2.6 20 8 1 5 27% 2562 78518 9265 27%
c - 38.63 27 136 0 42 16432 19 179024 15755 2.6 20 8 1 5 27% 2543 78517 9265 27%
c i 38.65 27 134 0 42 16455 19 180502 16760 2.6 20 8 1 5 26% 2554 78516 9264 27%
c i 38.65 27 134 0 42 16455 19 180509 16762 2.6 20 8 1 5 26% 2556 78516 9263 27%
c i 38.65 27 134 0 42 16455 19 180510 16762 2.6 20 8 1 5 26% 2556 78516 9262 27%
c } 38.65 27 134 0 42 16455 19 180516 16762 2.6 20 8 1 5 26% 2559 78516 9255 27%
c
c  seconds   switched      rate          size/glue tier1    binary        remaining
c         MB   reductions    conflicts         size  tier2     irredundant
c           level   restarts        redundant    glue   trail        variables
c
c 0 38.65 27 134 0 42 16455 19 180516 16762 2.6 20 8 1 5 26% 2559 78516 9255 27%
c
c ---- [ result ] ------------------------------------------------------------
c
s UNSATISFIABLE
c
c ---- [ profiling ] ---------------------------------------------------------
c
c          27.06   70.03 %  search
c          27.06   70.03 %  focused
c          11.05   28.59 %  simplify
c          10.68   27.64 %  probe
c           4.69   12.13 %  sweep
c           4.11   10.64 %  vivify
c           0.72    1.86 %  factor
c           0.66    1.71 %  eliminate
c           0.50    1.31 %  congruence
c           0.49    1.26 %  substitute
c           0.45    1.17 %  preprocess
c           0.19    0.50 %  reduce
c           0.15    0.39 %  fastel
c           0.12    0.30 %  subsume
c           0.11    0.30 %  transitive
c           0.06    0.14 %  backbone
c           0.05    0.12 %  lucky
c           0.04    0.09 %  parse
c =============================================
c          38.65  100.00 %  total
c
c ---- [ statistics ] --------------------------------------------------------
c
c chronological:                         4879                3 %  conflicts
c conflicts:                           180516             4670.62 per second
c congruent:                             3705               11 %  variables
c decisions:                          3566011               19.75 per conflict
c eliminated:                           19026               55 %  variables
c factored:                              3556               10 %  variables
c fast_eliminated:                      11037               58 %  eliminated
c fast_strengthened:                        2                0 %  per strengthened
c fast_subsumed:                           70                1 %  per subsumed
c iterations:                              23                0 %  variables
c propagations:                     156487660          4048920    per second
c reductions:                              42             4298    interval
c reordered:                                6            30086    interval
c restarts:                             16455               11    interval
c strengthened:                          4382                0 %  checks
c substituted:                           9927               29 %  variables
c subsumed:                             12030                0 %  checks
c switched:                                 0                0    interval
c vivified:                             88091               14 %  checks
c
c ---- [ glue usage ] --------------------------------------------------------
c
c focused glue 1 used 268235 clauses 57.15% accumulated 57.15% tier1
c focused glue 2 used 103227 clauses 21.99% accumulated 79.14%
c focused glue 3 used  29485 clauses  6.28% accumulated 85.42%
c focused glue 4 used  16842 clauses  3.59% accumulated 89.01%
c focused glue 5 used  11125 clauses  2.37% accumulated 91.38% tier2
c
c ---- [ resources ] ---------------------------------------------------------
c
c maximum-resident-set-size:         30801920 bytes         29 MB
c process-time:                            39s              38.65 seconds
c
c ---- [ shutting down ] -----------------------------------------------------
c
c exit 20
